
--- Job fabrica_de_cerveza.gms Start 09/16/22 14:32:30 40.2.0 6cf3fb9c LEX-LEG x86 64bit/Linux
--- Applying:
    /opt/GAMS/gams40.2_linux_x64_64_sfx/gmsprmun.txt
--- GAMS Parameters defined
    Input /home/embid/Desktop/class/mog/modelos-operativos-gestion/ejercicios/gams/fabrica_de_cerveza.gms
    PageSize 0
    ScrDir /home/embid/Desktop/class/mog/modelos-operativos-gestion/ejercicios/gams/225a/
    SysDir /opt/GAMS/gams40.2_linux_x64_64_sfx/
    LogOption 3
    ErrMsg 1
    ErrorLog 99
    IDE 1
    LstTitleLeftAligned 1
Licensee: GAMS Demo license for Juan Embid               G220915|0002CO-GEN
          Universidad Complutense de Madrid, Spain                 DL073690
          /opt/GAMS/gams40.2_linux_x64_64_sfx/gamslice.txt
          jembid@ucm.es, Juan Embid                                        
          Demo license for demonstration and instructional purposes only
Processor information: 1 socket(s), 4 core(s), and 8 thread(s) available
GAMS 40.2.0   Copyright (C) 1987-2022 GAMS Development. All rights reserved
--- Starting compilation
--- fabrica_de_cerveza.gms(31) 2 Mb
--- Starting execution: elapsed 0:00:00.020
--- Generating LP model cerveza
--- fabrica_de_cerveza.gms(29) 3 Mb
---   3 rows  3 columns  7 non-zeroes
--- Range statistics (absolute non-zero finite values)
--- RHS       [min, max] : [ 1.500E+01, 3.500E+02] - Zero values observed as well
--- Bound     [min, max] : [        NA,        NA] - Zero values observed as well
--- Matrix    [min, max] : [ 1.000E+00, 1.240E+02]
--- Executing CPLEX (Solvelink=2): elapsed 0:00:00.022

IBM ILOG CPLEX   40.2.0 6cf3fb9c Sep 1, 2022           LEG x86 64bit/Linux    

--- *** This solver runs with a demo license. No commercial use.
--- GMO setup time: 0.00s
--- GMO memory 0.50 Mb (peak 0.50 Mb)
--- Dictionary memory 0.00 Mb
--- Cplex 22.1.0.0 link memory 0.00 Mb (peak 0.00 Mb)
--- Starting Cplex

Version identifier: 22.1.0.0 | 2022-03-09 | 1a383f8ce
CPXPARAM_Advance                                 0
CPXPARAM_Simplex_Display                         2
CPXPARAM_Threads                                 1
CPXPARAM_MIP_Display                             4
CPXPARAM_MIP_Pool_Capacity                       0
CPXPARAM_MIP_Tolerances_AbsMIPGap                0
Tried aggregator 1 time.
LP Presolve eliminated 0 rows and 1 columns.
Reduced LP has 2 rows, 2 columns, and 4 nonzeros.
Presolve time = 0.00 sec. (0.00 ticks)

Iteration      Dual Objective            In Variable           Out Variable
     1 sI            0.000000                  negra      presupuesto slack
     2             434.358974                  rubia        empleados slack

--- LP status (1): optimal.
--- Cplex Time: 0.00sec (det. 0.00 ticks)


Optimal solution found
Objective:          434.358974

--- Reading solution for model cerveza
*** Status: Normal completion
--- Job fabrica_de_cerveza.gms Stop 09/16/22 14:32:30 elapsed 0:00:00.055
